n = 10;
p = 10;
c = 3;
q = 4;

desconto = 0.2;
H = [|
3, 5 |
4, 6 |
4, 7 |
4, 8 |
|];

tmax = 209.75;
P = [ 5, 8, 4, 9, 8, 3, 3, 5, 8, 6 ];

G = [|
0, 115, 433, 296, 73, 245, 353, 103, 249, 170 |
115, 0, 254, 324, 486, 69, 500, 63, 425, 132 |
433, 254, 0, 155, 246, 164, 150, 130, 104, 373 |
296, 324, 155, 0, 478, 335, 304, 440, 314, 123 |
73, 486, 246, 478, 0, 269, 107, 448, 113, 316 |
245, 69, 164, 335, 269, 0, 220, 181, 65, 324 |
353, 500, 150, 304, 107, 220, 0, 282, 109, 349 |
103, 63, 130, 440, 448, 181, 282, 0, 387, 186 |
249, 425, 104, 314, 113, 65, 109, 387, 0, 366 |
170, 132, 373, 123, 316, 324, 349, 186, 366, 0 |
|];

